InboundTrucks  = 120;
OutboundTrucks = 60;
InboundDoors   = 16;
OutboundDoors  = 16;
ReleaseTime    = [222,246,50,274,254,239,360,115,265,92,50,100,116,64,321,349,103,298,164,3,260,152,165,320,141,171,44,53,41,310,149,114,156,10,344,272,357,71,153,275,305,186,59,244,156,356,155,48,37,105,52,348,307,74,256,343,186,218,183,340,217,2,265,55,173,122,281,331,132,44,114,255,268,182,271,298,84,248,239,35,238,42,130,235,154,236,191,208,139,156,192,152,290,78,66,166,116,10,87,317,40,80,0,278,343,139,309,101,171,135,165,261,176,204,18,207,237,269,40,42];
UnloadTime     = [3,4,2,10,8,4,9,6,6,8,8,5,4,9,7,10,7,2,3,9,4,3,1,9,4,7,3,2,4,7,6,5,10,5,2,10,9,3,8,10,4,3,8,2,1,2,6,2,8,3,7,4,2,2,2,3,3,5,4,9,8,6,3,9,8,10,9,5,9,1,1,5,8,1,7,1,6,5,9,7,6,5,9,4,6,2,4,3,5,8,4,8,8,4,3,1,9,10,1,9,9,10,8,6,2,2,2,7,4,9,5,2,5,1,10,7,3,2,3,6];
LoadTime       = [9,5,4,4,2,9,2,1,4,2,1,3,10,8,1,8,1,4,5,3,7,7,1,10,7,3,8,10,7,4,2,3,6,9,8,1,2,7,1,10,7,1,8,7,6,8,6,1,8,8,8,9,4,1,6,2,5,8,5,8];
TransferTime   = [| 0,0,0,0,0,0,0,0,0,0,1,4,0,1,5,0,0,0,0,0,0,0,0,0,1,0,0,0,0,0,0,0,0,3,1,0,5,0,0,0,0,0,1,1,2,0,0,0,0,0,0,3,0,0,0,0,0,3,2,0 | 0,2,0,5,0,0,3,0,0,2,0,0,3,0,0,0,0,0,4,0,0,0,0,0,0,0,0,0,0,1,0,0,0,0,0,2,0,0,0,0,0,0,1,2,0,0,2,5,0,1,0,0,0,0,1,0,0,0,1,0 | 0,0,0,2,0,0,0,0,0,3,0,3,0,0,0,3,0,0,1,3,0,0,2,0,0,0,0,0,0,0,0,0,2,0,0,5,0,0,0,0,0,0,1,0,0,0,1,3,0,4,0,0,2,0,1,0,0,0,2,0 | 0,0,2,0,4,0,5,0,0,0,2,0,5,0,0,0,0,2,0,0,0,0,3,0,1,0,4,0,0,3,0,0,0,2,0,0,0,0,2,0,0,1,0,2,0,0,0,0,0,0,0,2,5,0,0,1,3,0,0,0 | 0,0,0,0,0,0,0,3,0,3,3,5,0,4,1,0,0,0,0,0,0,0,0,0,0,0,0,0,0,0,1,0,0,3,0,0,1,0,0,0,3,0,0,2,5,0,0,0,0,0,0,1,0,0,0,3,0,3,0,2 | 0,0,5,0,1,0,1,0,0,0,0,0,3,0,0,0,0,2,0,2,0,0,0,0,4,3,2,0,0,0,0,0,1,0,0,0,0,0,0,0,0,2,1,0,0,0,0,0,0,0,3,0,2,0,0,1,0,0,0,0 | 0,0,0,4,0,0,0,0,0,1,0,0,0,0,0,0,0,0,4,0,0,0,0,0,0,0,0,0,0,0,0,0,0,0,0,1,0,0,0,0,0,0,5,0,0,0,1,5,0,1,0,0,0,1,3,0,0,0,4,0 | 0,5,3,0,0,3,0,5,0,0,0,0,0,0,1,4,0,0,0,0,3,0,0,0,0,0,0,0,0,1,0,0,5,0,4,0,2,2,0,0,0,0,0,0,0,3,0,0,0,0,0,0,0,0,3,0,0,0,0,5 | 2,0,0,0,0,2,0,0,0,0,0,0,0,0,0,0,3,2,0,1,0,0,3,4,0,4,0,0,3,0,4,0,0,0,0,2,0,0,0,0,4,0,0,3,0,0,1,0,3,0,0,0,3,0,0,0,0,0,0,0 | 0,0,0,0,0,0,0,0,0,0,3,4,0,3,2,0,0,0,0,0,0,0,0,0,0,1,0,0,0,0,0,2,0,5,0,0,1,2,0,1,0,0,0,3,5,0,3,0,3,0,0,4,0,0,2,0,0,5,0,0 | 0,0,0,0,0,4,0,0,4,2,0,0,0,0,0,0,0,0,0,3,0,4,0,0,3,0,0,5,0,0,0,2,0,0,0,0,0,0,1,2,0,3,0,0,0,0,0,0,0,0,2,0,0,5,0,0,3,0,0,0 | 0,0,0,0,3,3,0,0,2,0,0,0,0,0,0,0,0,0,0,0,0,2,0,0,0,0,0,3,0,0,0,2,0,0,0,0,0,2,5,4,0,0,0,0,0,0,0,0,0,2,2,0,0,4,0,3,1,0,0,0 | 0,0,0,4,0,0,0,0,0,3,0,0,0,0,0,0,0,0,5,0,0,0,0,0,0,0,0,0,0,0,0,0,0,0,0,1,0,0,0,0,0,0,1,0,0,0,4,4,0,4,0,0,0,0,3,0,0,0,1,0 | 0,0,2,0,5,0,5,0,0,3,0,0,4,0,0,0,0,2,0,0,0,0,0,0,1,0,1,0,0,0,0,0,0,0,0,2,0,0,0,0,0,2,0,0,0,0,0,0,0,0,0,0,3,0,0,3,0,0,0,3 | 0,1,0,0,0,0,0,2,0,0,2,4,0,4,4,0,0,0,0,0,0,0,0,0,0,0,0,0,0,0,0,0,0,2,0,0,1,0,0,0,0,0,0,4,2,0,0,1,0,1,0,1,0,0,0,0,0,1,0,0 | 0,1,0,0,0,0,0,3,0,0,0,0,0,0,0,3,0,0,0,0,3,0,0,0,0,0,0,0,0,3,0,0,3,0,2,0,0,4,0,0,0,0,0,0,0,3,0,0,0,0,0,0,0,0,0,2,0,3,3,5 | 2,0,0,0,0,0,0,0,0,0,0,0,0,0,0,0,4,0,0,5,0,0,1,1,2,5,3,0,5,0,3,0,2,0,0,0,0,0,0,0,1,1,0,0,0,0,0,3,5,0,0,0,0,0,0,0,0,0,2,2 | 0,0,0,0,0,3,0,0,0,0,5,3,0,5,2,0,0,0,0,0,0,0,0,0,0,0,1,3,0,0,0,0,0,3,0,1,2,0,0,0,0,0,0,3,1,0,0,0,0,0,0,1,0,2,0,0,0,3,0,0 | 5,2,0,0,0,0,0,0,0,0,0,0,0,0,0,0,2,0,3,5,0,0,1,2,0,4,0,0,5,0,4,0,0,0,0,1,0,0,0,0,1,0,1,0,0,0,0,3,5,0,0,0,2,0,0,0,0,0,1,2 | 0,0,3,0,5,0,2,0,0,0,0,0,1,0,0,0,0,2,0,0,0,0,0,0,1,0,1,0,0,0,0,0,0,0,0,0,0,0,0,0,0,5,0,3,0,0,0,0,0,0,0,0,4,0,0,2,0,0,0,0 | 0,0,2,0,5,0,5,0,0,0,0,0,3,0,0,2,0,5,0,0,0,0,0,0,1,0,4,0,0,0,0,0,0,0,0,0,0,0,0,0,0,5,0,0,0,0,0,0,0,0,3,0,4,0,1,2,0,0,0,0 | 2,0,0,0,0,2,0,0,3,0,0,3,0,0,0,0,1,0,0,0,0,3,0,0,0,0,0,3,0,0,0,3,0,0,0,0,0,0,5,4,0,0,0,0,0,0,0,0,0,0,4,0,0,2,0,0,1,0,0,0 | 2,2,0,0,0,0,0,5,0,0,0,1,3,0,0,4,0,0,0,0,4,1,0,0,0,2,0,0,0,2,0,0,3,0,3,1,0,5,0,0,3,0,0,1,0,4,0,0,0,0,0,0,0,0,0,0,0,0,0,2 | 0,0,0,0,0,5,0,0,4,0,0,0,0,0,0,3,0,0,0,0,0,1,0,0,0,0,0,2,0,0,0,4,0,0,0,0,0,0,2,2,0,0,0,0,0,0,0,0,0,0,2,0,0,5,0,0,1,0,0,0 | 0,0,0,0,0,5,0,0,5,0,0,0,0,0,0,0,2,0,0,0,3,3,0,2,0,0,0,5,0,0,0,2,0,2,0,0,0,0,2,1,0,3,1,0,0,0,1,0,0,0,5,0,0,4,0,1,4,3,0,0 | 0,4,0,0,0,0,0,2,0,0,0,0,0,0,0,4,0,0,0,0,5,0,0,0,0,0,0,0,3,2,0,0,1,0,4,0,0,3,0,1,0,0,0,0,0,4,0,0,0,0,0,0,0,0,1,0,0,0,0,4 | 0,0,2,3,0,0,0,0,0,2,1,1,0,0,0,0,0,0,4,0,0,0,0,0,0,0,0,0,0,0,0,0,0,0,0,5,0,0,0,0,0,0,4,0,0,0,5,4,0,4,0,0,1,0,5,0,0,0,2,0 | 2,0,0,0,0,0,0,0,0,0,0,0,2,0,0,0,3,0,0,1,0,0,2,4,0,3,3,0,2,0,2,0,0,0,0,0,0,0,0,0,3,0,0,0,0,0,0,0,1,0,0,0,0,3,0,3,0,0,0,0 | 0,5,0,0,0,0,0,4,0,0,0,3,0,0,0,3,0,0,0,0,1,0,0,0,0,3,0,0,0,2,0,3,2,3,3,0,0,1,0,0,0,0,0,0,0,3,0,0,0,0,0,0,0,0,0,0,0,0,3,3 | 0,3,2,0,0,0,0,0,0,0,3,4,0,1,5,0,0,0,0,0,0,0,1,0,0,0,0,2,0,0,2,0,0,2,0,0,1,2,0,0,0,0,2,4,2,0,0,0,0,0,0,2,0,1,0,0,0,3,0,0 | 0,0,3,0,1,0,5,0,0,0,0,0,3,0,0,3,0,1,0,0,0,0,0,0,5,0,5,0,2,0,0,0,0,0,0,0,0,0,0,0,0,5,2,2,0,0,0,0,0,0,0,0,4,0,0,5,0,0,0,0 | 0,0,4,0,2,0,3,0,0,3,0,0,1,0,3,0,0,4,0,0,0,0,0,0,2,0,3,0,0,0,3,0,0,0,0,0,0,0,0,0,0,5,0,0,0,0,0,0,0,0,0,0,4,0,0,2,2,0,0,0 | 2,0,0,0,0,5,0,0,3,0,0,0,0,0,0,0,0,0,0,0,0,5,0,0,0,0,0,4,0,3,1,2,0,0,3,0,0,0,4,5,0,0,0,0,0,0,0,2,1,0,3,0,0,3,0,0,1,0,0,0 | 0,1,3,0,0,0,0,3,0,1,0,0,0,0,0,5,0,0,0,0,1,0,3,0,0,0,0,0,0,5,0,0,1,0,2,0,0,1,0,0,0,0,0,0,0,3,0,0,1,0,1,0,1,0,0,0,3,1,1,5 | 5,0,0,0,0,0,0,0,0,0,0,0,0,0,0,1,2,0,0,1,3,0,4,5,0,1,0,0,1,0,1,0,0,0,0,1,0,0,0,0,5,0,0,0,3,0,0,0,3,0,0,0,0,0,0,0,0,2,0,0 | 0,2,0,0,0,0,0,5,0,0,0,0,0,0,0,4,0,0,0,0,4,0,0,0,0,0,0,1,0,5,0,0,4,0,5,0,0,1,0,0,0,0,0,0,3,2,0,0,0,0,0,0,0,0,0,0,0,0,0,2 | 0,0,0,4,0,3,0,0,3,4,3,2,0,0,0,0,0,0,2,0,0,0,0,0,0,0,0,0,0,0,0,1,3,0,0,3,0,0,0,0,0,0,5,0,0,0,3,3,0,3,0,0,0,0,3,0,0,0,5,0 | 0,0,0,1,0,3,0,0,4,0,0,0,0,0,0,0,0,0,0,0,0,5,0,0,0,0,0,2,0,0,0,2,0,0,0,0,0,0,3,2,0,0,2,0,0,0,0,0,0,0,4,0,0,2,0,0,2,0,0,0 | 0,2,0,0,0,0,0,1,0,0,0,0,0,0,0,3,0,0,0,0,1,0,0,0,0,0,0,0,1,3,0,0,4,0,5,0,1,1,2,0,0,0,0,0,0,4,0,0,0,0,0,0,0,0,0,1,0,1,0,4 | 0,3,0,0,0,0,0,1,2,0,0,0,0,0,0,3,0,0,3,0,4,0,0,0,0,0,0,0,0,2,0,1,5,0,1,0,0,1,0,0,3,0,0,0,0,4,0,0,0,0,0,0,0,0,0,0,0,0,0,4 | 1,0,0,3,0,0,0,0,0,3,0,0,0,0,0,0,0,0,5,0,0,0,0,0,0,0,0,0,1,0,0,0,0,0,0,1,0,0,0,0,0,0,3,0,0,0,5,4,0,5,0,0,0,0,4,0,0,0,5,0 | 0,4,0,0,0,0,3,3,0,0,0,0,0,0,0,4,0,0,0,0,1,0,0,0,3,0,0,2,0,5,0,0,5,0,1,0,0,2,0,0,0,0,0,3,0,1,0,0,0,0,0,0,0,0,0,0,0,0,1,4 | 0,0,0,1,0,0,0,0,0,0,3,2,0,1,2,0,0,0,0,0,2,0,0,0,0,0,0,0,0,0,0,0,0,1,0,0,3,0,0,0,0,0,0,1,3,0,0,0,1,0,0,3,0,0,0,0,0,1,0,0 | 0,0,5,0,5,0,5,0,2,0,0,0,2,0,0,2,0,5,1,0,0,0,0,0,4,0,2,0,0,0,0,0,0,0,0,0,0,0,0,0,0,2,0,0,0,0,0,0,0,0,0,0,3,0,0,5,0,0,0,0 | 1,0,0,0,0,0,0,0,0,0,3,1,2,2,1,0,0,0,0,0,0,0,0,0,3,0,0,0,0,0,0,0,0,3,0,0,1,0,0,0,0,0,0,2,1,0,0,0,0,0,2,3,0,0,0,0,2,4,0,0 | 0,0,0,0,0,0,0,0,0,0,4,3,0,4,4,0,1,0,2,0,0,0,0,3,0,0,0,0,0,0,0,0,0,2,0,0,4,0,0,0,0,0,1,3,2,0,0,0,0,0,0,1,0,2,0,0,0,3,0,0 | 0,0,0,0,0,2,3,1,0,0,1,2,0,1,2,0,0,1,0,0,0,3,0,0,0,0,0,0,0,0,0,0,0,2,0,0,2,0,0,0,1,0,0,1,3,0,2,0,0,0,0,1,0,0,0,0,0,3,0,0 | 2,0,3,0,1,0,4,2,0,0,0,3,3,0,0,0,0,2,0,0,0,0,0,0,4,3,1,0,0,0,0,0,0,0,0,1,3,0,3,0,0,5,0,0,2,0,0,0,0,0,0,0,3,1,0,2,0,0,0,0 | 1,4,0,0,0,0,0,4,0,0,0,0,0,0,0,3,0,0,0,0,2,0,0,0,0,0,0,2,0,3,0,0,2,0,4,0,0,2,0,0,0,0,0,0,0,5,0,0,3,0,1,0,0,0,0,0,0,1,0,3 | 1,4,3,0,0,0,0,3,0,0,2,0,0,0,0,3,0,0,0,0,1,0,0,0,0,0,0,0,0,3,0,1,5,0,4,0,0,3,0,0,0,0,0,0,0,5,0,0,0,0,0,0,0,0,0,0,0,1,0,3 | 0,4,0,0,0,0,0,1,0,0,0,0,0,0,0,4,0,0,0,0,1,2,0,0,0,0,0,0,0,4,0,0,4,0,4,0,0,2,0,0,0,0,0,0,0,4,0,0,0,0,0,0,0,2,0,0,0,0,2,5 | 1,3,0,0,1,1,0,0,3,0,0,0,0,0,0,0,4,0,0,3,0,0,1,1,0,1,0,0,5,0,2,0,0,0,0,0,0,0,0,0,4,2,0,0,0,2,0,0,5,1,0,0,0,0,0,0,0,0,0,0 | 3,0,0,0,0,0,0,0,2,3,0,0,0,0,0,0,1,0,0,3,0,0,2,1,0,2,0,0,2,0,3,0,0,0,0,0,0,0,0,0,2,0,0,0,0,0,0,0,4,0,0,0,0,0,0,0,0,0,0,0 | 0,0,0,4,0,0,0,0,0,3,0,0,0,0,0,0,0,0,4,0,2,0,0,0,0,0,1,0,0,0,0,0,0,0,0,3,0,0,3,0,0,0,3,0,0,0,3,3,0,2,2,0,0,0,3,0,0,0,1,0 | 0,1,0,0,0,0,0,5,0,3,0,0,0,0,0,2,0,0,0,0,3,0,0,0,0,0,0,0,0,5,0,0,3,0,2,0,0,3,0,0,0,0,0,0,0,2,0,0,0,3,0,0,0,0,0,0,0,1,0,5 | 0,0,0,4,2,0,0,0,0,4,0,1,0,0,0,0,0,0,2,0,0,0,0,0,0,0,0,0,0,0,0,0,0,0,2,2,0,0,0,0,0,0,1,0,0,0,3,3,0,1,0,0,0,0,3,1,0,0,1,0 | 0,4,0,0,0,0,0,5,0,2,0,0,0,0,0,1,0,0,0,0,4,3,0,0,0,1,2,0,0,4,3,0,2,0,3,0,0,3,0,0,0,0,0,0,0,2,0,0,0,0,0,0,0,0,0,0,0,0,1,5 | 0,0,4,0,5,0,3,0,0,0,3,2,3,0,0,0,1,1,0,0,0,0,0,0,3,0,5,0,0,0,0,0,0,0,0,2,0,0,0,0,0,5,0,1,0,0,0,0,0,0,0,0,3,0,0,2,0,0,0,0 | 4,0,1,3,0,0,0,0,0,0,3,0,0,0,0,0,4,0,0,4,0,0,1,3,0,3,0,0,5,2,3,0,0,0,0,0,0,0,0,0,4,0,0,0,0,0,0,0,4,0,0,0,0,1,0,0,0,0,0,0 | 4,1,0,0,0,0,0,2,0,0,0,0,0,1,0,0,1,1,0,1,0,0,2,3,1,5,0,0,1,0,5,0,0,0,0,0,0,2,0,0,4,0,0,0,0,0,0,0,5,0,0,0,0,0,1,0,0,0,0,0 | 0,0,0,0,0,3,2,0,5,0,0,0,0,0,0,0,0,0,0,0,0,1,0,0,0,0,0,4,0,0,0,5,0,0,0,0,0,0,2,3,0,0,0,0,0,0,0,0,0,0,5,0,0,1,0,0,5,0,2,0 | 3,0,0,0,0,0,0,0,0,0,0,0,0,0,0,0,3,0,0,1,0,0,2,1,0,5,0,0,5,0,4,0,0,0,0,0,2,1,0,0,2,0,0,0,0,0,0,0,2,0,0,0,0,0,0,0,0,0,0,0 | 0,2,0,0,0,0,0,0,0,0,2,4,0,2,4,0,1,0,0,0,0,0,0,0,0,0,0,0,0,2,3,0,0,2,0,0,5,0,0,0,0,2,0,3,5,0,0,0,0,0,0,4,0,0,0,0,0,3,0,0 | 0,0,2,0,3,0,2,0,0,0,0,0,1,0,0,0,0,1,0,0,0,0,0,1,5,3,3,0,1,0,0,1,0,0,0,0,0,0,0,0,0,3,0,0,0,0,0,0,0,0,3,0,4,0,0,2,0,0,0,0 | 0,2,2,0,0,0,0,5,0,0,0,0,0,0,0,4,0,0,1,0,3,0,0,0,0,0,0,0,0,5,0,0,4,0,5,0,0,4,0,0,0,1,0,0,0,4,0,0,0,2,0,0,0,0,0,0,0,0,0,4 | 0,0,3,0,0,1,0,0,1,0,0,0,0,0,0,0,0,0,3,0,0,4,0,0,0,0,0,4,0,1,0,5,0,0,2,3,0,0,1,2,0,0,1,0,0,0,0,0,0,0,5,0,0,3,0,0,3,0,0,0 | 0,0,0,3,0,0,2,0,0,2,0,0,0,0,0,0,0,0,3,0,0,0,0,0,2,0,0,0,0,0,0,0,0,0,0,2,0,0,0,0,0,0,5,0,3,0,1,4,0,4,0,0,0,0,1,0,0,0,5,0 | 0,4,0,0,0,0,0,3,0,0,0,0,0,0,0,2,0,0,0,0,4,0,0,0,0,0,0,0,0,1,0,0,4,0,3,0,3,5,0,3,0,0,0,0,0,1,0,0,0,0,0,0,0,0,0,0,2,0,0,1 | 0,0,0,5,0,0,0,0,0,2,0,0,0,0,0,0,0,0,5,0,0,0,0,0,0,0,0,0,0,0,0,0,3,0,0,2,0,3,0,2,0,0,4,1,3,0,2,4,0,1,0,0,0,0,5,0,0,0,4,0 | 0,0,0,2,0,0,2,0,0,1,0,0,0,0,0,0,1,0,2,1,0,0,0,0,0,0,0,0,0,0,0,0,0,0,3,4,0,0,0,0,1,0,3,0,0,0,5,2,0,2,0,0,0,0,3,0,0,2,4,0 | 0,0,0,1,0,0,0,0,0,3,0,0,0,0,0,0,0,0,2,0,0,0,0,0,0,0,0,1,0,0,0,0,0,0,1,3,0,0,0,0,0,2,3,0,0,0,5,4,0,4,0,0,2,0,2,0,0,0,4,0 | 0,0,0,0,0,0,0,0,0,0,4,5,0,3,2,0,0,0,2,0,0,0,0,0,2,0,0,0,0,0,0,0,0,2,0,0,5,0,0,0,0,0,0,3,4,0,0,0,0,0,0,4,0,0,0,0,0,2,0,0 | 0,0,0,2,0,0,0,0,0,3,0,0,0,0,0,0,0,0,1,0,0,0,0,0,0,0,0,0,0,0,0,0,0,0,0,3,0,0,0,2,0,3,2,0,0,0,5,4,0,5,0,0,0,0,4,3,0,0,5,3 | 0,0,3,0,4,0,3,0,0,0,0,0,3,0,0,0,0,5,0,0,0,0,0,0,2,0,4,0,0,0,0,0,0,0,0,0,0,0,0,0,0,4,0,0,0,0,1,0,0,0,0,0,5,0,0,3,0,0,0,2 | 2,0,0,2,0,1,0,0,0,2,0,0,0,0,0,0,0,0,4,0,0,0,0,0,0,0,0,0,0,0,0,0,0,0,0,4,0,0,0,0,0,0,2,0,0,0,4,5,0,3,1,0,0,1,4,1,0,0,3,0 | 0,0,2,0,0,0,0,0,2,0,2,1,0,1,4,0,0,0,2,0,0,0,0,0,0,0,0,0,0,0,0,0,0,4,0,0,2,0,0,0,0,0,0,3,1,0,0,0,1,0,0,2,0,0,0,0,0,1,0,0 | 0,0,0,0,0,5,0,0,2,0,0,0,0,0,0,0,0,0,0,0,0,5,0,0,0,0,3,1,0,0,0,4,0,0,0,0,0,3,5,1,0,0,0,0,0,0,0,0,0,0,2,0,0,2,0,0,2,0,0,0 | 1,0,0,0,0,2,0,0,5,0,0,0,0,0,0,0,0,0,0,0,0,3,0,0,0,0,0,3,0,0,0,1,0,0,0,0,0,0,5,1,0,0,0,0,0,0,0,0,0,0,5,0,0,3,0,0,4,0,0,0 | 0,0,0,0,2,0,0,0,0,0,4,1,0,4,1,0,3,0,0,0,0,0,0,0,0,0,0,0,0,0,0,0,0,5,0,0,5,0,0,0,0,0,0,1,1,0,0,3,1,3,0,4,0,0,0,0,3,2,0,0 | 5,0,2,0,0,0,0,0,0,0,2,0,0,0,0,0,4,0,0,1,0,0,2,1,0,2,3,0,5,0,2,0,0,0,3,0,0,0,0,0,2,0,0,0,0,0,1,0,1,0,0,1,0,0,0,0,0,3,0,3 | 0,0,0,0,0,0,0,0,1,0,5,2,0,3,1,0,0,0,0,0,1,0,0,0,3,0,0,0,0,0,0,0,0,2,0,2,4,0,0,0,1,0,0,2,3,0,0,3,0,0,0,4,0,0,1,0,0,5,0,0 | 3,0,3,2,0,0,0,0,0,1,0,0,0,0,0,0,0,0,2,0,0,2,0,0,1,1,0,2,0,0,0,0,0,0,0,4,0,0,0,0,0,0,4,0,0,0,5,4,0,5,0,0,0,0,4,0,0,0,5,0 | 0,0,2,0,4,0,2,0,0,0,2,0,3,0,0,0,0,3,0,0,0,0,0,0,5,0,4,0,0,0,0,0,0,0,0,0,0,0,0,0,0,4,0,0,0,0,0,0,0,0,0,0,3,0,0,3,0,0,0,0 | 1,0,0,0,0,0,0,0,0,0,0,0,0,0,0,0,2,0,0,1,0,0,2,3,0,2,1,0,4,0,1,0,0,0,0,0,0,2,0,0,1,0,0,0,0,0,0,0,2,3,0,0,0,0,0,2,0,0,0,0 | 0,0,0,0,0,2,0,0,3,0,0,0,0,0,2,0,0,3,0,0,0,2,0,0,0,0,2,3,0,0,0,4,0,0,0,0,0,0,5,5,0,0,0,0,0,2,0,1,0,3,2,0,0,2,0,0,4,0,0,0 | 0,1,2,0,0,0,0,2,0,3,0,0,0,1,0,4,0,0,0,0,4,0,0,2,0,0,0,0,0,2,0,0,5,0,3,0,0,5,0,0,0,0,0,0,0,1,0,0,0,0,0,0,0,0,0,0,0,2,0,2 | 0,0,3,0,3,0,1,0,0,0,0,0,5,0,0,2,0,1,0,0,0,0,1,0,1,0,2,0,0,0,0,2,0,0,0,0,0,0,0,0,0,1,0,2,2,0,0,0,0,0,0,0,4,0,0,2,0,0,0,0 | 0,3,3,0,2,0,5,0,1,0,0,0,5,0,0,0,0,4,0,0,0,0,0,0,4,0,5,0,0,0,0,0,0,0,0,0,0,0,0,0,0,1,0,0,0,0,0,0,0,0,0,0,4,0,0,2,0,0,0,0 | 0,0,0,0,1,4,0,0,4,0,0,0,2,0,0,2,0,0,0,3,0,1,0,0,0,0,0,3,0,0,3,5,0,1,0,0,0,0,5,3,0,0,0,1,0,0,0,0,3,0,5,0,0,5,0,0,1,0,0,0 | 1,2,0,0,2,0,0,0,0,0,0,0,0,3,0,0,5,0,0,4,0,0,4,4,1,1,0,0,4,0,4,3,0,0,2,0,0,0,0,0,2,0,0,3,0,0,2,0,3,0,1,0,0,0,0,0,0,0,0,0 | 0,0,1,0,0,0,0,0,0,0,2,1,0,5,5,0,0,1,0,0,0,0,3,0,0,0,0,0,0,0,0,0,2,3,0,0,5,0,0,0,0,0,0,5,3,0,0,0,0,0,0,2,0,0,2,0,0,3,0,2 | 0,0,0,5,0,0,0,0,0,4,0,0,0,0,0,2,0,2,2,0,0,0,0,0,0,0,0,0,0,0,0,0,0,0,0,5,0,0,0,2,0,0,4,0,0,0,5,1,0,2,0,0,0,0,3,0,0,0,3,0 | 0,0,0,0,0,5,0,0,3,0,0,1,0,0,0,0,0,0,0,0,0,2,0,0,0,0,0,1,0,0,0,1,0,0,0,0,0,0,2,3,0,0,0,0,0,0,0,0,0,0,1,0,0,5,0,0,2,0,0,0 | 0,0,0,0,0,4,0,0,3,0,0,0,2,0,0,0,0,0,0,0,0,5,0,0,0,0,0,1,0,0,0,5,0,0,0,0,0,0,2,5,0,0,0,0,0,0,0,0,0,0,2,0,0,5,0,0,5,0,0,0 | 5,0,0,0,2,0,0,0,0,0,1,0,0,0,0,0,1,0,0,3,0,0,3,4,0,2,0,0,3,2,4,0,0,0,0,0,0,0,0,0,1,0,0,0,0,0,0,0,2,0,0,0,0,0,0,0,0,0,0,0 | 0,5,0,0,0,0,0,4,0,0,0,0,0,0,3,2,0,0,0,0,1,0,0,0,0,0,0,0,1,4,0,1,5,0,2,0,0,5,0,0,0,0,0,0,0,2,0,0,1,0,0,0,0,0,0,3,0,0,0,2 | 0,0,0,3,0,0,0,0,0,4,3,0,0,0,0,0,0,0,4,0,0,0,0,0,0,0,1,0,0,0,0,0,0,0,0,2,0,0,0,0,1,0,2,0,0,0,4,3,0,1,0,0,0,0,3,0,0,0,3,0 | 0,0,2,0,0,0,0,0,2,0,5,1,0,4,4,0,0,0,0,0,0,2,0,0,0,0,2,0,0,0,0,0,0,5,0,0,3,0,0,0,0,0,0,3,4,0,0,3,0,0,0,3,0,0,1,0,0,5,0,0 | 0,0,0,0,0,1,0,0,4,0,0,0,0,0,0,0,0,0,0,0,0,4,0,0,0,0,0,3,0,0,0,1,0,0,0,0,0,0,1,5,0,0,0,0,0,0,0,0,0,1,2,0,0,4,0,0,3,0,0,0 | 0,0,1,0,3,0,3,0,0,0,0,0,4,0,0,0,0,2,0,0,0,0,0,0,4,0,2,0,0,0,0,0,0,0,0,0,1,0,1,0,0,3,0,0,0,0,3,1,0,0,0,0,2,0,0,5,0,0,0,0 | 0,0,0,0,0,4,0,0,5,0,0,0,0,3,0,0,0,0,0,0,0,3,0,0,0,0,2,4,0,0,0,1,0,0,0,0,0,0,1,2,0,0,0,0,0,0,0,0,0,2,5,0,0,3,0,0,5,0,0,0 | 0,0,4,0,5,0,1,1,2,0,0,0,3,0,0,1,0,4,0,0,0,1,0,0,1,0,5,1,0,0,0,0,0,0,0,0,0,0,0,0,0,3,0,0,0,0,0,3,0,1,0,0,3,0,0,1,3,0,0,0 | 3,4,0,0,0,3,0,1,3,0,0,0,0,0,0,5,0,0,0,0,1,0,0,0,0,0,0,0,0,5,0,0,1,0,3,0,0,5,0,1,0,0,0,0,0,5,0,1,0,0,0,0,0,0,0,0,0,0,0,3 | 0,0,0,1,0,3,1,0,1,0,2,0,3,0,0,0,0,0,0,0,0,1,0,0,0,0,0,3,0,0,3,5,0,0,0,2,0,2,3,1,1,0,0,1,0,0,0,0,0,0,5,0,0,4,0,0,2,0,0,0 | 4,0,0,0,3,2,0,0,0,0,0,3,0,0,0,0,5,0,0,1,0,0,5,2,0,3,0,0,4,0,3,0,0,0,0,0,0,0,0,0,1,0,0,0,0,0,0,0,5,0,0,1,0,0,3,0,0,0,0,0 | 5,0,0,0,0,2,0,0,0,0,0,3,0,0,0,0,3,0,0,4,0,0,2,5,0,1,0,0,4,0,2,0,0,3,0,3,0,0,0,0,4,0,0,2,1,0,2,0,1,0,0,0,0,0,0,0,0,0,0,0 | 0,0,0,1,0,0,0,0,0,0,1,4,0,5,3,0,0,0,0,0,0,0,0,0,0,0,0,0,0,0,0,0,0,2,0,0,4,0,0,0,0,0,0,3,4,0,0,0,0,0,0,3,0,0,0,0,0,5,0,0 | 0,0,0,4,3,0,0,0,0,2,0,0,0,0,0,0,3,0,3,0,0,0,0,0,0,0,0,0,0,0,0,0,0,0,0,4,0,0,0,0,0,0,1,1,0,3,1,1,0,1,0,0,1,0,4,0,0,0,1,0 | 0,0,0,2,0,0,0,0,0,0,3,2,0,2,1,0,3,0,0,0,0,0,2,2,0,0,0,0,0,0,0,0,0,5,0,0,5,0,0,0,0,0,0,1,1,0,0,0,0,3,0,1,0,0,0,0,0,1,0,0 | 3,0,0,0,0,1,2,0,0,0,0,0,0,0,0,0,1,0,0,4,2,0,3,1,0,1,0,1,4,0,1,0,0,0,3,0,0,0,0,0,2,0,0,0,0,0,0,0,1,0,0,0,0,0,0,0,0,0,0,0 | 0,0,0,0,0,0,0,3,0,0,1,1,0,1,1,0,0,0,3,1,1,0,0,0,1,0,0,0,0,0,0,0,0,4,0,0,2,0,0,0,0,0,0,4,3,0,0,0,0,0,0,5,3,0,0,0,0,5,0,0 | 0,0,4,0,2,0,2,0,0,0,1,0,4,0,0,0,0,4,0,0,0,0,3,0,4,0,2,0,0,0,0,0,0,0,0,0,0,0,0,0,0,1,0,0,0,0,0,0,0,1,2,0,3,0,0,2,0,0,0,0 | 0,0,1,5,0,0,0,0,0,3,0,0,0,0,0,0,0,0,3,0,0,0,0,0,1,0,0,0,0,2,0,0,0,0,0,5,0,0,0,0,0,0,3,0,0,0,4,2,0,3,0,0,0,0,5,0,0,0,2,0 | 0,0,2,0,1,0,4,0,0,0,0,0,2,1,0,0,0,4,0,0,0,0,0,0,1,0,1,0,0,0,0,3,0,3,0,0,0,0,0,0,1,5,0,0,0,0,0,0,0,0,0,0,2,0,0,1,0,0,0,0 | 2,0,0,0,0,0,0,0,3,1,0,0,0,0,0,0,1,0,0,2,0,0,4,4,0,4,0,0,4,0,3,0,0,0,0,0,0,0,0,0,1,0,0,0,0,0,0,0,2,0,0,0,0,0,0,0,0,0,0,0 | 0,0,2,3,3,0,3,0,2,0,0,0,2,0,0,0,0,3,2,0,0,2,0,0,1,1,1,0,0,0,0,0,0,0,0,0,0,0,0,0,0,3,0,0,0,0,1,0,0,0,0,0,3,0,0,1,0,0,0,0 | 4,0,0,0,0,0,0,0,0,0,0,0,0,0,0,0,5,0,0,5,0,0,4,3,0,4,0,0,2,0,5,0,0,0,0,0,0,0,1,0,4,0,0,0,3,0,0,0,3,0,0,0,0,0,0,0,0,0,0,0 | 0,0,1,0,0,1,0,0,3,1,1,3,0,0,0,0,0,0,0,0,0,2,0,0,0,0,0,5,0,0,0,5,0,0,0,0,0,0,3,2,0,0,0,2,3,0,0,0,0,0,3,0,0,4,0,0,2,0,0,0 | 3,0,0,0,0,0,0,0,0,0,0,0,0,0,0,0,1,0,0,5,0,0,5,3,1,5,0,0,2,0,1,0,0,0,0,0,0,0,0,0,5,0,0,0,1,0,0,0,2,0,0,0,0,0,0,0,0,0,0,0 | 0,0,0,1,0,5,0,0,1,0,0,0,1,0,0,0,0,0,0,0,0,3,0,3,0,0,0,2,0,0,0,4,0,0,0,0,3,0,5,2,0,0,0,0,0,0,2,0,0,1,3,0,0,4,3,0,2,0,0,3 |];
